c This is QMaxSAT 2017 based on 14.07
c This is Glucose 3.0
c This is MiniSat 2.2.0
c WARNING: for repeatability, setting FPU to use double precision
c card = mrwto, comp = 0, pmodel = 0, narr = 10, mct = 99, verb = 0
cr firstCPXsol 0 0 0
c top = 824631
c |  Number of variables:    23328                                            |
c |  Number of clauses:      2344327                                          |
c |  Weight of hard clauses: 824631                                           |
c |  Number of soft clauses: 114660                                           |
c |  Number of unit soft clauses: 0                                           |
c |  Maximum Cardinality (by unit): 10382180     (0           )               |
c last restart ## conflicts  :  0 4741 
o 3405 | cpuTime 0.387465 s
c Sum of weights = 1038218
c A number of soft clauses remained = 11466
c MRWTO encoding for Pseudo-Boolean Constraints
c sizeMax=3405
c No.0 Divisor=16	generated by pow1
c No.1 Divisor=16	generated by pow1
c No.2 Divisor=16	generated by pow1
c p0= 16	p1= 16	p2= 16	
c number of digits = 4
c linkingVar[0].size = 16, linkingVar[1].size = 16, linkingVar[2].size = 14, linkingVar[3].size = 1, 
c Pseudo-Boolean Constraints: 275857 variables and 3270760 clauses
c Sum of weights = 1038218
c A number of soft clauses remained = 11466
c MRWTO encoding for Pseudo-Boolean Constraints
c sizeMax=3405
c No.0 Divisor=16	generated by pow1
c No.1 Divisor=16	generated by pow1
c No.2 Divisor=16	generated by pow1
c p0= 16	p1= 16	p2= 16	
c number of digits = 4
c linkingVar[0].size = 16, linkingVar[1].size = 16, linkingVar[2].size = 14, linkingVar[3].size = 1, 
c Pseudo-Boolean Constraints: 275857 variables and 3270760 clauses
c Sum of weights = 1038218
c A number of soft clauses remained = 11466
c MRWTO encoding for Pseudo-Boolean Constraints
c sizeMax=3405
c No.0 Divisor=16	generated by pow1
c No.1 Divisor=16	generated by pow1
c No.2 Divisor=16	generated by pow1
c p0= 16	p1= 16	p2= 16	
c number of digits = 4
c linkingVar[0].size = 16, linkingVar[1].size = 16, linkingVar[2].size = 14, linkingVar[3].size = 1, 
c Pseudo-Boolean Constraints: 275857 variables and 3270760 clauses
c Sum of weights = 1038218
c A number of soft clauses remained = 11466
c MRWTO encoding for Pseudo-Boolean Constraints
c sizeMax=3405
c No.0 Divisor=16	generated by pow1
c No.1 Divisor=16	generated by pow1
c No.2 Divisor=16	generated by pow1
c p0= 16	p1= 16	p2= 16	
c number of digits = 4
c linkingVar[0].size = 16, linkingVar[1].size = 16, linkingVar[2].size = 14, linkingVar[3].size = 1, 
c Pseudo-Boolean Constraints: 275857 variables and 3270760 clauses
c Sum of weights = 1038218
c A number of soft clauses remained = 11466
c MRWTO encoding for Pseudo-Boolean Constraints
c sizeMax=3405
c No.0 Divisor=16	generated by pow1
c No.1 Divisor=16	generated by pow1
c No.2 Divisor=16	generated by pow1
c p0= 16	p1= 16	p2= 16	
c number of digits = 4
c linkingVar[0].size = 16, linkingVar[1].size = 16, linkingVar[2].size = 14, linkingVar[3].size = 1, 
c Pseudo-Boolean Constraints: 275857 variables and 3270760 clauses
c Sum of weights = 1038218
c A number of soft clauses remained = 11466
c MRWTO encoding for Pseudo-Boolean Constraints
c sizeMax=3405
c No.0 Divisor=16	generated by pow1
c No.1 Divisor=16	generated by pow1
c No.2 Divisor=16	generated by pow1
c p0= 16	p1= 16	p2= 16	
c number of digits = 4
c linkingVar[0].size = 16, linkingVar[1].size = 16, linkingVar[2].size = 14, linkingVar[3].size = 1, 
c Pseudo-Boolean Constraints: 275857 variables and 3270760 clauses
c Sum of weights = 1038218
c A number of soft clauses remained = 11466
c MRWTO encoding for Pseudo-Boolean Constraints
c sizeMax=3405
c No.0 Divisor=16	generated by pow1
c No.1 Divisor=16	generated by pow1
c No.2 Divisor=16	generated by pow1
c p0= 16	p1= 16	p2= 16	
c number of digits = 4
c linkingVar[0].size = 16, linkingVar[1].size = 16, linkingVar[2].size = 14, linkingVar[3].size = 1, 
c Pseudo-Boolean Constraints: 275857 variables and 3270760 clauses
c Sum of weights = 1038218
c A number of soft clauses remained = 11466
c MRWTO encoding for Pseudo-Boolean Constraints
c sizeMax=3405
c No.0 Divisor=16	generated by pow1
c No.1 Divisor=16	generated by pow1
c No.2 Divisor=16	generated by pow1
c p0= 16	p1= 16	p2= 16	
c number of digits = 4
c linkingVar[0].size = 16, linkingVar[1].size = 16, linkingVar[2].size = 14, linkingVar[3].size = 1, 
c Pseudo-Boolean Constraints: 275857 variables and 3270760 clauses
c Sum of weights = 1038218
c A number of soft clauses remained = 11466
c MRWTO encoding for Pseudo-Boolean Constraints
c sizeMax=3405
c No.0 Divisor=16	generated by pow1
c No.1 Divisor=16	generated by pow1
c No.2 Divisor=16	generated by pow1
c p0= 16	p1= 16	p2= 16	
c number of digits = 4
c linkingVar[0].size = 16, linkingVar[1].size = 16, linkingVar[2].size = 14, linkingVar[3].size = 1, 
c Pseudo-Boolean Constraints: 275857 variables and 3270760 clauses
c Sum of weights = 1038218
c A number of soft clauses remained = 11466
c MRWTO encoding for Pseudo-Boolean Constraints
c sizeMax=3405
c No.0 Divisor=16	generated by pow1
c No.1 Divisor=16	generated by pow1
c No.2 Divisor=16	generated by pow1
c p0= 16	p1= 16	p2= 16	
c number of digits = 4
c linkingVar[0].size = 16, linkingVar[1].size = 16, linkingVar[2].size = 14, linkingVar[3].size = 1, 
c Pseudo-Boolean Constraints: 275857 variables and 3270760 clauses
c last restart ## conflicts  :  256 58254 
o 2203 | cpuTime 23.0573 s
c last restart ## conflicts  :  1094 31585 
o 2138 | cpuTime 43.1118 s
c last restart ## conflicts  :  633 49317 
o 1511 | cpuTime 111.068 s
c last restart ## conflicts  :  1100 61452 
o 1290 | cpuTime 550.873 s
c last restart ## conflicts  :  419 23544 
o 1226 | cpuTime 996.773 s
c last restart ## conflicts  :  430 26851 
o 1031 | cpuTime 1148.78 s
c last restart ## conflicts  :  356 23233 
o 1005 | cpuTime 2987.21 s
s UNKNOWN
c Search is stopped by a limit (maybe time-limit)
cr positiVarArr: [ | 20(1->11) | 171(1->54) | 243(1->18) | 395(1->62) | 445(1->4) | 636(1->87) | 709(1->52) | 768(1->3) | 921(1->48) | 1046(1->65) | 1081(2->1) | 1209(3->12) | 1307(4->2) | 1446(5->33) | 1571(6->50) | 1634(7->5) | 1831(8->94) | 1860(9->15) | 1951(10->1) | 2075(11->14) | 2182(12->13) | 2321(13->44) | 2432(14->47) | 2527(15->34) | 2626(16->25) | 2772(17->63) | 2826(18->9) | 3020(19->95) | 3061(20->28) | 3171(21->30) | 3280(22->31) | 3379(23->22) | 3488(24->23) | 3605(25->32) | 3705(26->24) | 3815(27->26) | 3896(28->1) | 4024(29->19) | 4142(30->29) | 4242(31->21) | 4380(32->51) | 4516(33->79) | 4588(34->43) | 4680(35->27) | 4771(36->10) | 4905(37->36) | 5066(38->89) | 5168(39->83) | 5235(40->42) | 5341(41->40) | 5444(42->35) | 5533(43->16) | 5666(44->41) | 5770(45->37) | 5909(46->68) | 5966(47->17) | 6103(48->46) | 6232(49->67) | 6372(50->99) | 6430(51->49) | 6559(52->70) | 6594(53->1) | 6766(54->61) | 6821(55->8) | 6960(56->39) | 7093(57->64) | 7193(58->56) | 7323(59->78) | 7406(60->53) | 7549(61->88) | 7660(62->91) | 7715(63->38) | 7840(64->55) | 7967(65->74) | 8060(66->59) | 8175(67->66) | 8224(68->7) | 8345(69->20) | 8490(70->57) | 8639(71->98) | 8731(72->82) | 8849(73->92) | 8859(74->1) | 8974(75->1) | 9087(76->6) | 9265(77->76) | 9390(78->93) | 9485(79->80) | 9584(80->71) | 9693(81->72) | 9789(82->60) | 9837(83->1) | 10018(84->73) | 10139(85->86) | 10236(86->75) | 10365(87->96) | 10372(88->1) | 10575(89->90) | 10589(90->1) | 10785(91->84) | 10867(92->58) | 10910(93->1) | 11070(94->45) | 11218(95->85) | 11338(96->97) | 11426(97->77) | 11538(98->81) | 11634(99->69) | ]
cr the 1-th chain: [ 1->11->14->47->17->63->38->89->90->1 ] (#non-depot=8) {#cumul.=9}
cr the 2-th chain: [ 1->54->61->88->1 ] (#non-depot=3) {#cumul.=12}
cr the 3-th chain: [ 1->18->9->15->34->43->16->25->32->51->49->67->66->59->78->93->1 ] (#non-depot=15) {#cumul.=27}
cr the 4-th chain: [ 1->62->91->84->73->92->58->56->39->83->1 ] (#non-depot=9) {#cumul.=36}
cr the 5-th chain: [ 1->4->2->1 ] (#non-depot=2) {#cumul.=38}
cr the 6-th chain: [ 1->87->96->97->77->76->6->50->99->69->20->28->1 ] (#non-depot=11) {#cumul.=49}
cr the 7-th chain: [ 1->52->70->57->64->55->8->94->45->37->36->10->1 ] (#non-depot=11) {#cumul.=60}
cr the 8-th chain: [ 1->3->12->13->44->41->40->42->35->27->26->24->23->22->31->21->30->29->19->95->85->86->75->1 ] (#non-depot=22) {#cumul.=82}
cr the 9-th chain: [ 1->48->46->68->7->5->33->79->80->71->98->81->72->82->60->53->1 ] (#non-depot=15) {#cumul.=97}
cr the 10-th chain: [ 1->65->74->1 ] (#non-depot=2) {#cumul.=99}
c Latest Answer = 0 by 8 loops
c restarts              : 12738
c conflicts             : 2031251        (565 /sec)
c decisions             : 116875773      (0.00 % random) (32488 /sec)
c propagations          : 30196976771    (8393930 /sec)
c conflict literals     : 355176167      (38.96 % deleted)
c Memory used           : 3722.00 MB
c CPU time              : 3597.48 s
